COMMENT : drilling problem (Ludwig)
288 288 270 256 256 246 236 228 228 220 212 204 196 188 196 188 172 164 156 148 140 148 164 172 156 140 132 124 116 104 104 104 90 80 64 64 56 56 56 56 56 56 56 40 40 40 40 40 40 40 32 32 32 32 32 32 32 32 40 56 56 48 40 32 32 24 16 16 8 8 8 8 8 8 8 16 8 8 24 32 32 32 32 32 32 40 40 40 40 44 44 44 32 24 16 16 24 32 44 56 56 56 56 56 64 72 72 56 48 56 56 48 48 56 56 48 56 56 104 104 104 104 104 104 104 116 124 132 132 140 148 156 164 172 172 172 172 172 172 180 180 180 180 180 172 172 172 172 164 148 124 124 124 124 124 124 104 104 104 104 104 104 104 104 104 92 80 72 64 72 80 80 80 88 104 124 124 132 140 132 124 124 124 124 124 132 124 120 128 136 148 162 156 172 180 180 172 172 172 180 180 188 196 204 212 220 228 228 236 236 236 228 228 236 236 228 228 236 236 228 228 236 252 260 260 260 260 260 260 260 276 276 276 276 284 284 284 284 284 284 284 288 280 276 276 276 268 260 252 260 260 236 228 228 236 236 228 228 228 228 220 212 204 196 188 180 180 180 180 180 196 204 212 220 228 236 246 252 260 280
149 129 133 141 157 157 169 169 161 169 169 169 169 169 161 145 145 145 145 145 145 169 169 169 169 169 169 169 161 153 161 169 165 157 157 165 169 161 153 145 137 129 121 121 129 137 145 153 161 169 169 161 153 145 137 129 121 113 113 113 105 99 99 97 89 89 97 109 109 97 89 81 73 65 57 57 49 41 45 41 49 57 65 73 81 83 73 63 51 43 35 27 25 25 25 17 17 17 11 9 17 25 33 41 41 41 49 49 51 57 65 63 73 73 81 83 89 97 97 105 113 121 129 137 145 145 145 145 137 137 137 137 137 125 117 109 101 93 85 85 77 69 61 53 53 61 69 77 81 85 85 93 109 125 117 101 89 81 73 65 49 41 33 25 17 9 9 9 21 25 25 25 41 49 57 69 77 81 65 61 61 53 45 37 29 21 21 9 9 9 9 9 25 21 21 29 29 37 45 45 37 41 49 57 65 73 69 77 77 69 61 61 53 53 45 45 37 37 29 29 21 21 21 29 37 45 53 61 69 77 77 69 61 53 53 61 69 77 85 93 101 109 109 101 93 85 97 109 101 93 85 85 85 93 93 101 101 109 117 125 125 117 109 101 93 93 101 109 117 125 145 145 145 145 145 145 141 125 129 133
31149.6 29883.1 29436.3 28324.1 27514.4 26666.6 26654.3 26316.3 25868.2 25380.7 24950.9 24923.7 24599.3 23817 23547.1 23497 23276.7 23193.8 22912.4 22912.4 22625.3 22189.9 22145 22051.7 21297.3 21033.8 21019.6 20832.6 20657.6 20506.4 20506.4 20407.6 20100.2 19767.8 19649 19390.8 19299.2 19212.3 19183.8 19099.3 18989.4 18897.1 18645.7 18214.2 18214.2 18214.2 18214.2 18085.1 17971 17966.9 17843.5 17679.3 17633.5 17387.1 17275.5 17174.5 17090.1 17090.1 17023.7 17023.7 16968.5 16968.5 16859.5 16815.3 16815.3 16808 16672.7 16672.7 16571.1 16571.1 16565.4 16518.7 16518.7 16435 16427.9 16370.6 16370.6 16290.2 16245.4 16226.9 16108.5 16108.5 16108.5 16108.5 16108.5 16108.5 16108.5 16047.7 15684.2 15684.2 15684.2 15684.2 15662.4 15658.1 15456.1 15444.5 15390.5 15252.1 15252.1 15145.4 15121.8 15091.1 14961.6 14961.6 14961.6 14870.7 14863.7 14740.5 14663.5 14663.5 14663.5 14663.5 14663.5 14663.5 14663.5 14663.5 14663.5 14663.5 14663.5 14663.5 14561.4 14561.4 14561.4 14498.7 14498.7 14406.2 14340.9 14305.7 14305.7 14305.7 14251.8 14251.8 14218.8 14068.5 14068.5 13977.5 13977.5 13860 13860 13787.8 13787.8 13787.8 13787.8 13731.4 13683.1 13653 13632.9 13632.9 13632.9 13632.9 13632.9 13632.9 13608.1 13608.1 13581.8 13413.2 13413.2 13402 13402 13402 13402 13402 13402 13402 13402 13402 13402 13402 13316.9 13259.2 13259.2 13228.2 13181.8 13181.8 13181.8 13181.8 13180.2 12961.1 12932.8 12853.5 12849.5 12817.6 12709.2 12636.5 12610.4 12610.4 12610.4 12610.4 12610.4 12610.4 12610.4 12610.4 12551.9 12461 12461 12461 12425.1 12425.1 12425.1 12299.9 12299.9 12299.9 12279.8 12279.8 12279.8 12271.7 12243.2 12195.1 12185.7 12185.7 12185.7 12185.7 12185.7 12185.7 12176.8 12142.7 12142.7 12007.1 12007.1 12007.1 11967.9 11967.9 11967.9 11941.7 11941.7 11941.7 11928.7 11928.7 11928.7 11928.7 11928.7 11928.7 11928.7 11810.4 11810.4 11796.5 11720.1 11658.8 11658.8 11658.8 11658.8 11658.8 11658.8 11658.8 11658.8 11658.8 11658.8 11658.8 11658.8 11658.8 11658.8 11658.8 11596.7 11596.7 11587.5 11587.5 11587.5 11587.5 11587.5 11587.5 11587.5 11587.5 11587.5 11587.5 11565.5 11565.5 11565.5 11557 11499.7 11499.7 11379.7 11379.7 11329.3 11107.2 11107.2 11107.2 10977.8 10977.8 10977.8 10977.8 10977.8 10977.8 10887.1 10887.1 10887.1 10887.1 10887.1 10887.1 10887.1 10887.1 10887.1 10887.1 10887.1 10887.1 10887.1 10880.3 10865.8 10865.8 10826 10826 10826 10826 10826 10826 10826 10826 10826 10826 10815.6 10801.8 10801.8 10801.8 10767.7 10767.7 10767.7 10745.9 10745.9 10745.2 10745.2 10745.2 10711.4 10711.4 10711.4 10698.4 10698.4 10698.4 10698.4 10698.4 10698.4 10698.4 10698.4 10698.4 10676.5 10676.5 10676.5 10676.5 10676.5 10676.5 10676.5 10675.2 10675.2 10675.2 10675.2 10675.2 10675.2 10675.2 10668 10664.4 10664.4 10664.4 10594.6 10594.6 10511 10511 10495.2 10495.2 10495.2 10495.2 10495.2 10495.2 10495.2 10495.2 10487 10433.2 10433.2 10433.2 10401.8 10401.8 10380.9 10312.8 10312.8 10312.8 10292.2 10246.6 10246.6 10246.6 10246.6 10246.6 10246.6 10246.6 10246.6 10246.6 10246.6 10246.6 10246.6 10246.6 10246.6 10246.6 10246.6 10246.6 10246.6 10246.6 10246.6 10246.6 10246.6 10246.6 10246.6 10246.6 10246.6 10246.6 10246.6 10246.6 10246.6 10246.6 10246.6 10190 10180.8 10162.1 10096.5 10096.5 10077.6 10077.6 10062.1 10062.1 10062.1 10062.1 10062.1 10062.1 10062.1 10043.8 10043.8 10043.8 10043.8 10043.8 10043.8 10043.8 10039 10039 10039 10039 10010 10010 9959.39 9959.39 9959.39 9959.39 9907.97 9905.58 9905.58 9885.44 9885.44 9885.44 9881.7 9881.7 9881.7 9881.7 9881.7 9881.7 9823.96 9808.77 9808.77 9808.77 9808.77 9808.77 9763.54 9664.77 9664.77 9664.77 9615 9457.75 9457.75 9457.75 9457.75 9457.75 9414.74 9414.74 9414.74 9364.63 9364.63 9364.63 9364.63 9364.63 9336.71 9336.71 9336.71 9336.71 9260.43 9205.93 9117.79 9117.79 9117.79 9080.49 9080.49 9080.49 9080.49 9080.49 9080.49 9080.49 9080.49 9080.49 9080.49 9080.49 9080.49 9080.49 9080.49 9080.49 9080.49 9080.49 9077.21 9077.21 9057.68 9057.68 9057.68 9057.68 9057.68 9057.68 9032.58 9032.58 9026.95 9026.95 9026.95 9026.95 9014.63 8996.4 8976.18 8976.18 8975.03 8975.03 8975.03 8975.03 8965.15 8965.15 8922.77 8922.77 8922.77 8922.77 8922.77 8922.77 8922.77 8922.77 8922.77 8922.77 8922.77 8922.77 8893.04 8893.04 8893.04 8893.04 8893.04 8893.04 8893.04 8893.04 8893.04 8893.04 8893.04 8893.04 8893.04 8893.04 8893.04 8893.04 8893.04 8893.04 8893.04 8893.04 8893.04 8893.04 8893.04 8893.04 8868.92 8868.92 8843.33 8843.33 8833.44 8828.01 8828.01 8828.01 8828.01 8828.01 8819.6 8819.6 8819.6 8819.6 8812.62 8811.71 8811.71 8803.51 8794.29 8794.29 8788.05 8788.05 8757.46 8744.14 8744.14 8708.29 8708.29 8708.29 8708.29 8708.29 8708.29 8691.25 8691.25 8653.02 8653.02 8653.02 8653.02 8653.02 8593.14 8593.14 8593.14 8593.14 8593.14 8593.14 8587 8587 8587 8587 8587 8587 8587 8587 8587 8587 8587 8587 8587 8587 8587 8587 8587 8581.04 8581.04 8581.04 8581.04 8581.04 8581.04 8581.04 8581.04 8581.04 8581.04 8581.04 8581.04 8581.04 8581.04 8581.04 8581.04 8581.04 8499.25 8499.25 8499.25 8499.25 8499.25 8499.25 8499.25 8499.25 8499.25 8499.25 8499.25 8499.25 8499.25 8499.25 8499.25 8499.25 8499.25 8499.25 8493.83 8493.83 8467.48 8467.48 8467.48 8467.48 8451.14 8451.14 8451.14 8451.14 8451.14 8451.14 8451.14 8451.14 8451.14 8451.14 8451.14 8451.14 8451.14 8451.14 8451.14 8451.14 8451.14 8421.34 8421.34 8357.27 8251.83 8225.18 8225.18 8225.18 8225.18 8225.18 8225.18 8225.18 8225.18 8225.18 8225.18 8225.18 8225.18 8225.18 8225.18 8225.18 8225.18 8225.18 8225.18 8225.18 8225.18 8225.18 8225.18 8225.18 8225.18 8225.18 8225.18 8225.18 8225.18 8225.18 8225.18 8225.18 8225.18 8225.18 8225.18 8225.18 8225.18 8225.18 8225.18 8225.18 8225.18 8225.18 8225.18 8225.18 8225.18 8225.18 8225.18 8225.18 8225.18 8225.18 8225.18 8225.18 8225.18 8225.18 8225.18 8225.18 8225.18 8225.18 8225.18 8225.18 8225.18 8225.18 8225.18 8225.18 8225.18 8225.18 8225.18 8225.18 8225.18 8225.18 8225.18 8225.18 8225.18 8225.18 8225.18 8225.18 8225.18 8225.18 8225.18 8225.18 8225.18 8225.18 8225.18 8225.18 8225.18 8225.18 8225.18 8225.18 8225.18 8225.18 8225.18 8225.18 8225.18 8225.18 8225.18 8225.18 8225.18 8225.18 8225.18 8225.18 8225.18 8225.18 8225.18 8225.18 8225.18 8225.18 8225.18 8225.18 8225.18 8225.18 8225.18 8225.18 8225.18 8225.18 8225.18 8225.18 8225.18 8225.18 8225.18 8225.18 8225.18 8225.18 8225.18 8225.18 8225.18 8225.18 8225.18 8225.18 8225.18 8225.18 8225.18 8225.18 8225.18 8208.87 8208.87 8205.25 8205.25 8205.25 8205.25 8205.25 8205.25 8205.25 8205.25 8205.25 8205.25 8205.25 8205.25 8205.25 8205.25 8205.25 8205.25 8205.25 8205.25 8205.25 8205.25 8205.25 8205.25 8205.25 8198.2 8198.2 8182.38 8182.38 8182.38 8182.38 8182.38 8182.38 8182.38 8182.38 8182.38 8182.06 8182.06 8182.06 8164.73 8164.73 8164.73 8164.73 8164.52 8129.22 8129.22 8129.22 8129.22 8129.22 8129.22 8129.22 8129.22 8129.22 8129.22 8129.22 8129.22 8129.22 8129.22 8129.22 8129.22 8129.22 8129.22 8129.22 8129.22 8129.22 8129.22 8129.22 8129.22 8129.22 8129.22 8129.22 8129.22 8129.22 8129.22 8129.22 8129.22 8129.22 8129.22 8129.22 8129.22 8129.22 8129.22 8129.22 8129.22 8129.22 8129.22 8129.22 8129.22 8129.22 8129.22 8129.22 8129.22 8129.22 8129.22 8129.22 8129.22 8129.22 8129.22 8129.22 8129.22 8129.22 8129.22 8129.22 8129.22 8129.22 8129.22 8129.22 8129.22 8129.22 8129.22 8129.22 8129.22 8129.22 8129.22 8129.22 8129.22 8129.22 8129.22 8129.22 8129.22 8129.22 8129.22 8129.22 8129.22 8129.22 8129.22 8129.22 8129.22 8129.22 8129.22 8129.22 8129.22 8129.22 8129.22 8129.22 8129.22 8129.22 8129.22 8129.22 8129.22 8129.22 8129.22 8129.22 8129.22 8129.22 8129.22 8129.22 8129.22 8129.22 8129.22 8129.22 8129.22 8129.22 8129.22 8129.22 8129.22 8129.22 8129.22 8129.22 8129.22 8129.22 8129.22 8129.22 8129.22 8129.22 8129.22 8129.22 8129.22 8129.22 8129.22 8129.22 8129.22 8129.22 8129.22 8129.22 8129.22 8129.22 8129.22 8129.22 8129.22 8129.22 8129.22 8129.22 8129.22 8129.22 8129.22 8129.22 8129.22 8129.22 8129.22 8129.22 8129.22 8129.22 8129.22 8129.22 8129.22 8129.22 8129.22 8129.22 8129.22 8129.22 8129.22 8129.22 8129.22 8129.22 8129.22 8129.22 8129.22 8129.22 8129.22 8129.22 8129.22 8129.22 8129.22 8119.03 8119.03 8119.03 8119.03 8119.03 8119.03 8119.03 8100.65 8100.65 8100.65 8039.99 8039.99 8039.99 8032.82 8032.82 8032.82 8032.82 7997.58 7997.58 7997.58 7997.58 7997.58 7997.58 7997.58 7997.58 7997.58 7997.58 7997.58 7997.58 7997.58 7993.16 7993.16 7972.19 7972.19 7972.19 7972.19 7972.19 7972.19 7972.19 7972.19 7966.56 7966.56 7966.56 7966.56 7952.21 7952.21 7952.21 7952.21 7952.21 7952.21 7952.21 7952.21 7952.21 7952.21 7941 7941 7941 7941 7941 7941 7941 7941 7941 7931.87 7917.53 7917.53 7917.53 7913.41 7913.41 7913.41 7910.38 7910.38 7899.79 7899.79 7899.79 7899.79 7899.79 7899.79 7871.05 7871.05 7871.05 7871.05 7871.05 7871.05 7871.05 7871.05 7871.05 7871.05 7871.05 7871.05 7871.05 7863.78 7863.78 7863.78 7863.78 7863.78 7863.78 7863.78 7860.34 7860.34 7860.34 7860.34 7860.34 7860.34 7860.34 7860.34 7860.34 7860.34 7860.34 7860.34 7860.34 7860.34 7860.34 7779.41 7779.41 7779.41 7772.14 7772.14 7772.14 7772.14 7772.14 7772.14 7772.14 7772.14 7772.14 7772.14 7751.08 7751.08 7751.08 7751.08 7751.08 7751.08 7751.08 7751.08 7751.08 7751.08 7751.08 7751.08 7751.08 7751.08 7751.08 7732.31 7732.31 7717.57 7717.57 7717.57 7717.57 7695.36 7695.36 7695.36 7695.36 7695.36 7695.36 7695.36 7695.36 7695.36 7695.36 7695.36 7695.36 7687.46 7687.46 7687.46 7687.46 7687.46 7687.46 7687.46 7687.46 7680.76 7680.76 7640.47 7640.47 7608.56 7608.56 7608.56 7608.56 7608.56 7580.36 7580.36 7580.36 7580.36 7580.36 7580.36 7580.36 7580.36 7580.36 7580.36 7580.36 7580.36 7580.36 7580.36 7580.36 7580.36 7580.36 7580.36 7569.55 7569.55 7569.55 7569.55 7569.55 7569.55 7569.55 7569.55 7569.55 7569.55 7569.55 7569.55 7569.55 7569.55 7569.55 7569.55 7569.55 7569.55 7562.26 7500.56 7500.56 7500.56 7500.56 7500.56 7500.56 7500.56 7500.56 7500.56 7500.56 7500.56 7500.56 7500.56 7500.56 7500.56 7500.56 7500.56 7500.56 7471.06 7471.06 7448.6 7448.6 7448.6 7448.6 7448.6 7448.6 7448.6 7448.6 7448.6 7448.6 7448.6 7448.6 7448.6 7448.6 7448.6 7448.6 7448.6 7448.6 7448.6 7448.6 7448.6 7448.6 7448.6 7448.6 7448.6 7448.6 7448.6 7448.6 7448.6 7448.6 7448.6 7448.6 7448.6 7448.6 7448.6 7448.6 7448.6 7448.6 7448.6 7448.6 7448.6 7448.6 7448.6 7448.6 7448.6 7448.6 7448.6 7448.6 7448.6 7448.6 7448.6 7448.6 7432.6 7432.6 7432.6 7432.6 7432.6 7432.6 7432.6 7432.6 7432.6 7402.73 7402.73 7402.73 7402.73 7402.73 7402.73 7402.73 7402.73 7402.73 7402.73 7402.73 7402.73 7402.73 7402.73 7400.45 7400.45 7400.45 7400.45 7400.45 7400.45 7400.45 7400.45 7400.45 7400.45 7400.45 7400.45 7400.45 7400.45 7400.45 7400.45 7400.45 7360.52 7360.52 7360.52 7360.52 7360.52 7337.1 7337.1 7337.1 7337.1 7337.1 7328.2 7328.2 7328.2 7328.2 7328.2 7328.2 7301.51 7301.51 7301.51 7301.51 7301.51 7301.51 7301.51 7301.51 7301.51 7301.51 7301.51 7301.51 7301.51 7301.51 7301.51 7300.66 7300.66 7300.66 7300.66 7300.66 7300.66 7300.66 7300.66 7300.66 7300.66 7265.78 7265.78 7265.78 7253.96 7253.96 7226.02 7226.02 7226.02 7226.02 7226.02 7226.02 7226.02 7226.02 7226.02 7209.7 7166.46 7153.52 7153.52 7153.52 7153.52 7153.52 7153.52 7153.52 7153.52 7153.52 7153.52 7153.52 7153.52 7153.52 7153.52 7153.52 7153.52 7153.52 7153.52 7153.52 7153.52 7138.18 7138.18 7138.18 7138.18 7138.18 7138.18 7138.18 7138.18 7138.18 7138.18 7138.18 7138.18 7138.18 7138.18 7138.18 7138.18 7111.7 7111.7 7111.7 7111.7 7111.7 7111.7 7111.7 7111.7 7111.7 7111.7 7111.7 7111.7 7111.7 7111.7 7111.7 7111.7 7111.7 7111.7 7111.7 7111.7 7111.7 7111.7 7111.7 7111.7 7111.7 7111.7 7111.7 7111.7 7111.7 7111.7 7111.7 7111.7 7111.7 7111.7 7111.7 7111.7 7111.7 7111.7 7111.7 7111.7 7111.7 7111.7 7107.25 7107.25 7107.25 7107.25 7097.39 7097.39 7097.39 7097.39 7069.19 7069.19 7069.19 7069.19 7069.19 7069.19 7064.5 7064.5 7064.5 7045.42 7045.42 7045.42 7026.13 7026.13 7026.13 7026.13 7026.13 7026.13 7026.13 7026.13 7026.13 7026.13 7026.13 7026.13 7026.13 7026.13 6979.26 6979.26 6979.26 6979.26 6979.26 6979.26 6979.26 6979.26 6979.26 6979.26 6979.26 6979.26 6979.26 6979.26 6979.26 6979.26 6979.26 6979.26 6979.26 6979.26 6979.26 6979.26 6979.26 6979.26 6979.26 6979.26 6979.26 6979.26 6979.26 6979.26 6979.26 6979.26 6979.26 6979.26 6979.26 6979.26 6979.26 6979.26 6979.26 6979.26 6979.26 6979.26 6973.95 6973.95 6973.95 6973.95 6973.95 6973.95 6973.95 6973.95 6973.95 6973.95 6973.95 6973.95 6973.95 6973.95 6973.95 6973.53 6973.53 6973.53 6964.29 6964.29 6964.29 6964.29 6964.29 6955.28 6955.28 6955.28 6955.28 6955.28 6955.28 6955.28 6955.28 6955.28 6955.28 6955.28 6955.28 6955.28 6955.28 6955.28 6955.28 6955.28 6955.28 6955.28 6955.28 6955.28 6954.35 6954.35 6954.35 6954.35 6954.35 6954.35 6954.35 6954.35 6954.35 6954.35 6954.35 6954.35 6954.35 6954.35 6954.35 6954.35 6954.35 6954.35 6954.35 6954.35 6954.35 6954.35 6954.35 6954.35 6954.35 6954.35 6954.35 6954.35 6954.35 6954.35 6954.35 6954.35 6954.35 6954.35 6954.35 6954.35 6954.35 6954.35 6954.35 6954.35 6954.35 6954.35 6954.35 6954.35 6954.35 6929.23 6929.23 6929.23 6929.23 6929.23 6929.23 6929.23 6929.23 6929.23 6929.23 6929.23 6929.23 6929.23 6929.23 6929.23 6929.23 6929.23 6929.23 6929.23 6929.23 6929.23 6929.23 6929.23 6920.39 6920.39 6920.39 6920.39 6920.39 6920.39 6920.39 6920.39 6920.39 6920.39 6920.39 6920.39 6920.39 6920.39 6920.39 6886.25 6886.25 6886.25 6886.25 6886.25 6886.25 6886.25 6886.25 6886.25 6886.25 6886.25 6886.25 6886.25 6886.25 6886.25 6886.25 6886.25 6886.25 6886.25 6886.25 6852.75 6852.75 6852.75 6852.75 6852.75 6852.75 6852.75 6852.75 6852.75 6852.75 6843.35 6843.35 6843.35 6843.35 6843.35 6843.35 6843.35 6843.35 6843.35 6843.35 6843.35 6843.35 6843.35 6843.35 6843.35 6843.35 6843.35 6843.35 6843.35 6843.35 6841.83 6841.83 6841.83 6841.83 6841.83 6841.83 6841.83 6841.83 6841.83 6841.83 6841.83 6841.83 6841.83 6841.83 6841.83 6841.83 6841.83 6841.83 6841.83 6841.83 6841.83 6841.83 6841.83 6841.83 6841.83 6841.83 6841.83 6833.91 6833.91 6833.91 6833.91 6833.91 6833.91 6833.91 6833.91 6833.91 6833.91 6833.91 6830.28 6830.28 6830.28 6830.28 6830.28 6830.28 6830.28 6830.28 6830.28 6830.28 6830.28 6830.28 6830.28 6830.28 6830.28 6830.28 6830.28 6830.28 6830.28 6830.28 6830.28 6830.28 6830.28 6830.28 6830.28 6830.28 6830.28 6830.28 6830.28 6813.49 6813.49 6813.49 6798.53 6798.53 6796.09 6796.09 6789.28 6789.28 6789.28 6789.28 6789.28 6766.58 6766.58 6766.58 6766.58 6763.99 6763.99 6762 6762 6762 6762 6762 6739.81 6739.81 6739.81 6739.81 6739.81 6739.81 6723.53 6723.53 6723.53 6723.53 6720.66 6720.66 6720.66 6720.66 6720.66 6720.66 6720.66 6720.66 6720.66 6720.66 6720.66 6720.66 6720.66 6720.66 6720.66 6720.66 6720.66 6720.66 6720.66 6720.66 6720.66 6720.66 6720.66 6720.66 6720.66 6720.66 6720.66 6720.66 6720.66 6720.66 6720.66 6720.66 6720.66 6720.66 6720.66 6720.66 6720.66 6720.66 6720.66 6720.66 6712.34 6712.34 6712.34 6662.15 6662.15 6662.15 6662.15 6662.15 6662.15 6662.15 6662.15 6662.15 6662.15 6662.15 6662.15 6662.15 6662.15 6662.15 6662.15 6662.15 6662.15 6662.15 6662.15 6662.15 6662.15 6662.15 6662.15 6662.15 6662.15 6662.15 6662.15 6662.15 6662.15 6662.15 6662.15 6662.15 6662.15 6662.15 6662.15 6662.15 6662.15 6662.15 6662.15 6662.15 6662.15 6662.15 6662.15 6662.15 6662.15 6662.15 6662.15 6662.15 6662.15 6662.15 6662.15 6662.15 6662.15 6662.15 6662.15 6662.15 6662.15 6662.15 6662.15 6662.15 6662.15 6662.15 6662.15 6662.15 6662.15 6662.15 6662.15 6662.15 6662.15 6662.15 6662.15 6662.15 6662.15 6662.15 6662.15 6662.15 6662.15 6662.15 6662.15 6662.15 6662.15 6662.15 6662.15 6662.15 6662.15 6662.15 6662.15 6662.15 6662.15 6662.15 6662.15 6662.15 6662.15 6662.15 6662.15 6662.15 6662.15 6662.15 6662.15 6662.15 6662.15 6662.15 6662.15 6662.15 6662.15 6662.15 6662.15 6662.15 6662.15 6662.15 6662.15 6662.15 6662.15 6661.65 6661.65 6661.65
9 5 273 13 10 274 15 14 22 25 18 134 136 268 141 138 135 137 140 151 152 158 120 119 156 122 123 125 31 155 128 20 16 12 271 262 267 269 133 130 126 131 21 27 28 26 127 29 32 33 124 45 53 54 68 66 75 77 78 79 73 71 70 72 76 80 93 110 109 88 74 65 67 56 51 41 37 30 34 35 40 48 42 46 44 43 116 85 108 173 157 153 270 258 256 210 212 217 218 225 224 226 236 235 234 229 228 223 220 204 205 207 257 263 200 195 197 196 202 203 146 199 193 192 191 194 198 145 201 213 222 216 214 238 237 233 230 211 209 232 250 251 255 259 275 276 4 248 245 239 243 242 241 278 277 7 272 24 23 17 19 132 129 36 39 49 50 38 55 52 57 62 60 118 61 86 87 91 112 81 82 89 90 104 105 103 111 102 100 101 168 170 169 92 97 98 96 84 83 63 59 47 58 69 64 115 117 114 113 121 154 178 176 175 160 161 162 179 177 181 150 266 142 144 190 186 185 184 183 171 165 164 187 188 163 189 166 174 159 167 99 94 95 172 106 107 182 180 147 143 149 148 139 264 265 254 252 253 206 208 221 215 219 227 246 231 247 244 249 240 2 3 1 280 279 261 260 11 6 8
1 2 242 243 244 241 240 239 238 237 236 235 234 233 232 231 246 245 247 250 251 230 229 228 227 226 225 224 223 222 221 220 219 218 217 216 215 214 213 212 211 210 207 206 205 204 203 202 201 198 197 196 195 194 193 192 191 190 189 188 187 186 185 184 183 182 181 176 180 179 150 178 177 151 152 156 153 155 154 129 130 131 20 21 128 127 126 125 124 123 122 121 120 119 157 158 159 160 175 161 162 163 164 165 166 167 168 169 170 172 171 173 174 107 106 105 104 103 102 101 100 99 98 97 96 95 94 93 92 91 90 89 109 108 110 111 112 88 87 113 114 115 117 116 86 85 84 83 82 81 80 79 78 77 76 75 74 73 72 71 70 69 68 67 66 65 64 58 57 56 55 54 53 52 51 50 49 48 47 46 45 44 59 63 62 118 61 60 43 42 41 40 39 38 37 36 35 34 33 32 31 30 29 28 27 26 22 25 23 24 14 15 13 12 11 10 9 8 7 6 5 4 277 276 275 274 273 272 271 16 17 18 19 132 133 134 270 269 135 136 268 267 137 138 139 149 148 147 146 145 199 200 144 143 142 141 140 266 265 264 263 262 261 260 259 258 257 254 253 208 209 252 255 256 249 248 278 279 3 280
